20	5
0	4	3	4	1	2
1	1	12
2	1	14
3	3	14	12	9
4	0
5	1	11
6	2	20	15
7	3	20	18	15
8	0
9	1	17
10	1	8
11	1	16
12	2	7	11
13	1	6
14	1	11
15	0
16	1	13
17	0
18	1	21
19	1	21
20	1	21
21	0
0	0	0	0	0	0	0
1	8	0	5	0	4	1
2	10	0	0	1	4	2
3	10	1	2	5	0	0
4	4	0	0	2	3	0
5	5	0	4	0	0	0
6	1	0	4	4	0	1
7	9	0	0	3	0	4
8	4	0	0	3	0	0
9	9	0	0	0	4	2
10	7	0	0	3	0	0
11	5	5	1	4	0	0
12	7	1	4	5	4	0
13	1	0	3	5	0	0
14	5	5	2	1	0	5
15	5	0	0	0	2	0
16	8	0	0	0	1	5
17	4	1	2	5	2	4
18	4	4	0	1	4	3
19	10	0	0	0	0	5
20	7	3	0	1	1	0
21	0	0	0	0	0	0
6	6	8	8	11
